20	5
0	8	1	3	7	4	2	8	5	6
1	1	20
2	1	17
3	1	21
4	2	10	14
5	1	18
6	1	12
7	1	16
8	1	20
9	1	14
10	1	17
11	2	15	9
12	1	13
13	1	11
14	1	19
15	1	10
16	0
17	1	21
18	1	21
19	1	21
20	1	21
21	0
0	0	0	0	0	0	0
1	4	0	0	0	0	4
2	8	0	0	0	0	5
3	9	4	3	4	3	2
4	2	0	2	0	5	5
5	8	2	0	5	3	0
6	1	1	3	1	3	0
7	3	1	0	1	0	0
8	5	3	4	1	3	4
9	10	0	0	4	0	0
10	3	4	2	1	5	1
11	5	1	1	0	0	0
12	7	0	3	0	0	0
13	6	1	0	0	0	2
14	8	0	0	0	2	0
15	3	5	4	2	0	4
16	6	0	0	0	0	4
17	10	4	0	0	0	0
18	9	1	1	4	0	0
19	7	0	3	0	4	0
20	10	2	2	3	0	0
21	0	0	0	0	0	0
9	9	11	11	13
